c colouring generated by benchmark framework
p edge 87 406
v 1 3
v 2 8
v 3 2
v 4 7
v 5 3
v 6 2
v 7 4
v 8 9
v 9 3
v 10 1
v 11 4
v 12 4
v 13 8
v 14 9
v 15 10
v 16 1
v 17 8
v 18 9
v 19 1
v 20 1
v 21 8
v 22 4
v 23 5
v 24 9
v 25 1
v 26 8
v 27 7
v 28 8
v 29 3
v 30 1
v 31 1
v 32 3
v 33 1
v 34 2
v 35 7
v 36 1
v 37 7
v 38 1
v 39 9
v 40 8
v 41 9
v 42 3
v 43 2
v 44 2
v 45 4
v 46 6
v 47 1
v 48 10
v 49 8
v 50 2
v 51 6
v 52 3
v 53 6
v 54 4
v 55 10
v 56 2
v 57 4
v 58 3
v 59 3
v 60 0
v 61 2
v 62 6
v 63 5
v 64 4
v 65 7
v 66 4
v 67 2
v 68 2
v 69 9
v 70 8
v 71 10
v 72 4
v 73 5
v 74 5
v 75 9
v 76 10
v 77 2
v 78 7
v 79 2
v 80 1
v 81 10
v 82 8
v 83 0
v 84 6
v 85 3
v 86 1
v 87 9
